(set-logic HORN)
(declare-datatypes ((Sign_0 0)) (((Pos_0 ) (Neg_0 ))))
(declare-fun diseqSign_0 (Sign_0 Sign_0) Bool)
(declare-fun isPos_0 (Sign_0) Bool)
(declare-fun isNeg_0 (Sign_0) Bool)
(assert (isPos_0 Pos_0))
(assert (isNeg_0 Neg_0))
(assert (diseqSign_0 Pos_0 Neg_0))
(assert (diseqSign_0 Neg_0 Pos_0))
(declare-datatypes ((Nat_211 0)) (((zero_23 ) (succ_23 (p_63 Nat_211)))))
(declare-fun diseqNat_211 (Nat_211 Nat_211) Bool)
(declare-fun p_65 (Nat_211 Nat_211) Bool)
(declare-fun iszero_23 (Nat_211) Bool)
(declare-fun issucc_23 (Nat_211) Bool)
(assert (forall ((x_15166 Nat_211))
	(p_65 x_15166 (succ_23 x_15166))))
(assert (iszero_23 zero_23))
(assert (forall ((x_15168 Nat_211))
	(issucc_23 (succ_23 x_15168))))
(assert (forall ((x_15169 Nat_211))
	(diseqNat_211 zero_23 (succ_23 x_15169))))
(assert (forall ((x_15170 Nat_211))
	(diseqNat_211 (succ_23 x_15170) zero_23)))
(assert (forall ((x_15171 Nat_211) (x_15172 Nat_211))
	(=> (diseqNat_211 x_15171 x_15172)
	    (diseqNat_211 (succ_23 x_15171) (succ_23 x_15172)))))
(declare-datatypes ((Integer_0 0)) (((P_64 (projP_0 Nat_211)) (N_36 (projN_0 Nat_211)))))
(declare-fun diseqInteger_0 (Integer_0 Integer_0) Bool)
(declare-fun projP_1 (Nat_211 Integer_0) Bool)
(declare-fun projN_1 (Nat_211 Integer_0) Bool)
(declare-fun isP_0 (Integer_0) Bool)
(declare-fun isN_0 (Integer_0) Bool)
(assert (forall ((x_15173 Nat_211))
	(projP_1 x_15173 (P_64 x_15173))))
(assert (forall ((x_15175 Nat_211))
	(projN_1 x_15175 (N_36 x_15175))))
(assert (forall ((x_15177 Nat_211))
	(isP_0 (P_64 x_15177))))
(assert (forall ((x_15178 Nat_211))
	(isN_0 (N_36 x_15178))))
(assert (forall ((x_15179 Nat_211) (x_15180 Nat_211))
	(diseqInteger_0 (P_64 x_15179) (N_36 x_15180))))
(assert (forall ((x_15181 Nat_211) (x_15182 Nat_211))
	(diseqInteger_0 (N_36 x_15181) (P_64 x_15182))))
(assert (forall ((x_15183 Nat_211) (x_15184 Nat_211))
	(=> (diseqNat_211 x_15183 x_15184)
	    (diseqInteger_0 (P_64 x_15183) (P_64 x_15184)))))
(assert (forall ((x_15185 Nat_211) (x_15186 Nat_211))
	(=> (diseqNat_211 x_15185 x_15186)
	    (diseqInteger_0 (N_36 x_15185) (N_36 x_15186)))))
(declare-fun toInteger_0 (Integer_0 Sign_0 Nat_211) Bool)
(assert (forall ((z_631 Nat_211))
	(toInteger_0 (N_36 z_631) Neg_0 (succ_23 z_631))))
(assert (toInteger_0 (P_64 zero_23) Neg_0 zero_23))
(assert (forall ((y_589 Nat_211))
	(toInteger_0 (P_64 y_589) Pos_0 y_589)))
(declare-fun sign_1 (Sign_0 Integer_0) Bool)
(assert (forall ((z_632 Nat_211))
	(sign_1 Neg_0 (N_36 z_632))))
(assert (forall ((y_590 Nat_211))
	(sign_1 Pos_0 (P_64 y_590))))
(declare-fun plus_21 (Nat_211 Nat_211 Nat_211) Bool)
(assert (forall ((x_15110 Nat_211) (z_633 Nat_211) (y_591 Nat_211))
	(=> (plus_21 x_15110 z_633 y_591)
	    (plus_21 (succ_23 x_15110) (succ_23 z_633) y_591))))
(assert (forall ((x_15111 Nat_211))
	(plus_21 x_15111 zero_23 x_15111)))
(declare-fun times_3 (Nat_211 Nat_211 Nat_211) Bool)
(assert (forall ((x_15112 Nat_211) (x_15113 Nat_211) (z_634 Nat_211) (y_592 Nat_211))
	(=>	(and (times_3 x_15113 z_634 y_592)
			(plus_21 x_15112 y_592 x_15113))
		(times_3 x_15112 (succ_23 z_634) y_592))))
(assert (forall ((y_592 Nat_211))
	(times_3 zero_23 zero_23 y_592)))
(declare-fun opposite_0 (Sign_0 Sign_0) Bool)
(assert (opposite_0 Pos_0 Neg_0))
(assert (opposite_0 Neg_0 Pos_0))
(declare-fun timesSign_0 (Sign_0 Sign_0 Sign_0) Bool)
(assert (forall ((x_15118 Sign_0) (y_593 Sign_0))
	(=> (opposite_0 x_15118 y_593)
	    (timesSign_0 x_15118 Neg_0 y_593))))
(assert (forall ((x_15120 Sign_0))
	(timesSign_0 x_15120 Pos_0 x_15120)))
(declare-fun absVal_0 (Nat_211 Integer_0) Bool)
(assert (forall ((x_15121 Nat_211) (m_17 Nat_211))
	(=> (plus_21 x_15121 (succ_23 zero_23) m_17)
	    (absVal_0 x_15121 (N_36 m_17)))))
(assert (forall ((n_37 Nat_211))
	(absVal_0 n_37 (P_64 n_37))))
(declare-fun times_4 (Integer_0 Integer_0 Integer_0) Bool)
(assert (forall ((x_15124 Integer_0) (x_15125 Sign_0) (x_15126 Sign_0) (x_15127 Sign_0) (x_15128 Nat_211) (x_15129 Nat_211) (x_15130 Nat_211) (x_15090 Integer_0) (y_594 Integer_0))
	(=>	(and (sign_1 x_15125 x_15090)
			(sign_1 x_15126 y_594)
			(timesSign_0 x_15127 x_15125 x_15126)
			(absVal_0 x_15128 x_15090)
			(absVal_0 x_15129 y_594)
			(times_3 x_15130 x_15128 x_15129)
			(toInteger_0 x_15124 x_15127 x_15130))
		(times_4 x_15124 x_15090 y_594))))
(assert (forall ((x_15132 Integer_0) (x_15133 Integer_0) (x_15091 Integer_0) (y_595 Integer_0))
	(=>	(and true
			(diseqInteger_0 x_15132 x_15133)
			(times_4 x_15132 x_15091 y_595)
			(times_4 x_15133 y_595 x_15091))
		false)))
(assert (forall ((x_15134 Nat_211) (x_15135 Nat_211) (x_15136 Nat_211) (x_15137 Nat_211) (x_15092 Nat_211) (y_596 Nat_211) (z_635 Nat_211))
	(=>	(and true
			(diseqNat_211 x_15135 x_15137)
			(times_3 x_15134 y_596 z_635)
			(times_3 x_15135 x_15092 x_15134)
			(times_3 x_15136 x_15092 y_596)
			(times_3 x_15137 x_15136 z_635))
		false)))
(assert (forall ((x_15138 Nat_211) (x_15139 Nat_211) (x_15140 Nat_211) (x_15141 Nat_211) (x_15093 Nat_211) (y_597 Nat_211) (z_636 Nat_211))
	(=>	(and true
			(diseqNat_211 x_15139 x_15141)
			(plus_21 x_15138 y_597 z_636)
			(plus_21 x_15139 x_15093 x_15138)
			(plus_21 x_15140 x_15093 y_597)
			(plus_21 x_15141 x_15140 z_636))
		false)))
(assert (forall ((x_15142 Nat_211) (x_15143 Nat_211) (x_15094 Nat_211) (y_598 Nat_211))
	(=>	(and true
			(diseqNat_211 x_15142 x_15143)
			(times_3 x_15142 x_15094 y_598)
			(times_3 x_15143 y_598 x_15094))
		false)))
(assert (forall ((x_15144 Nat_211) (x_15145 Nat_211) (x_15095 Nat_211) (y_599 Nat_211))
	(=>	(and true
			(diseqNat_211 x_15144 x_15145)
			(plus_21 x_15144 x_15095 y_599)
			(plus_21 x_15145 y_599 x_15095))
		false)))
(assert (forall ((x_15146 Nat_211) (x_15147 Nat_211) (x_15148 Nat_211) (x_15149 Nat_211) (x_15150 Nat_211) (x_15096 Nat_211) (y_600 Nat_211) (z_637 Nat_211))
	(=>	(and true
			(diseqNat_211 x_15147 x_15150)
			(plus_21 x_15146 y_600 z_637)
			(times_3 x_15147 x_15096 x_15146)
			(times_3 x_15148 x_15096 y_600)
			(times_3 x_15149 x_15096 z_637)
			(plus_21 x_15150 x_15148 x_15149))
		false)))
(assert (forall ((x_15151 Nat_211) (x_15152 Nat_211) (x_15153 Nat_211) (x_15154 Nat_211) (x_15155 Nat_211) (x_15097 Nat_211) (y_601 Nat_211) (z_638 Nat_211))
	(=>	(and true
			(diseqNat_211 x_15152 x_15155)
			(plus_21 x_15151 x_15097 y_601)
			(times_3 x_15152 x_15151 z_638)
			(times_3 x_15153 x_15097 z_638)
			(times_3 x_15154 y_601 z_638)
			(plus_21 x_15155 x_15153 x_15154))
		false)))
(assert (forall ((x_15156 Nat_211) (x_15098 Nat_211))
	(=>	(and true
			(diseqNat_211 x_15156 x_15098)
			(times_3 x_15156 x_15098 (succ_23 zero_23)))
		false)))
(assert (forall ((x_15157 Nat_211) (x_15099 Nat_211))
	(=>	(and true
			(diseqNat_211 x_15157 x_15099)
			(times_3 x_15157 (succ_23 zero_23) x_15099))
		false)))
(assert (forall ((x_15158 Nat_211) (x_15100 Nat_211))
	(=>	(and true
			(diseqNat_211 x_15158 x_15100)
			(plus_21 x_15158 x_15100 zero_23))
		false)))
(assert (forall ((x_15159 Nat_211) (x_15101 Nat_211))
	(=>	(and true
			(diseqNat_211 x_15159 x_15101)
			(plus_21 x_15159 zero_23 x_15101))
		false)))
(assert (forall ((x_15160 Nat_211) (x_15102 Nat_211))
	(=>	(and true
			(diseqNat_211 x_15160 zero_23)
			(times_3 x_15160 x_15102 zero_23))
		false)))
(assert (forall ((x_15161 Nat_211) (x_15103 Nat_211))
	(=>	(and true
			(diseqNat_211 x_15161 zero_23)
			(times_3 x_15161 zero_23 x_15103))
		false)))
(check-sat)
